Route #1: 43 4 28 7 39 50 5 18
Route #2: 35 15 10 17 1 29 23
Route #3: 20 49 36 45 26 21 33 9 38
Route #4: 44 53 3 22 13
Route #5: 11 19 8 31 40 48 37 32
Route #6: 14 2 12 27 6 16
Route #7: 30 25 47 51 24 42 46 41 34 52
Cost 1168
Time 0.083983
